db/data/15425326462967612213570632151103432195.z3.out
-------------------
2500.108572865
